
  22    0


   0  12 2 3 4 5 6 9 10 11 12 19 20 21 
   7   3 18 15 13 
   6   2 13 7 
   1   2 14 8 
   8   2 17 14 
   2   2 16 13 
   9   1 15 
   6   1 13 
   6   1 14 
  10   1 14 
   8   1 13 
  10   1 13 
   2   1 22
   3   1 22
   2   1 22
   1   1 22
   2   1 22
   2   1 22
   1   1 22
   9   1 22
   7   1 22
   0   0 
